(set-logic UFDT)
(declare-datatypes ((nat 0)) (((zero) (s (s0 nat)))))
(declare-fun add (nat nat) nat)
(non-erasing add 2)
(injective add (true true))
(declare-fun leq (nat nat) Bool)
(assert (forall ((y nat)) (= (add zero y) y)))
(assert (forall ((x nat) (y nat)) (= (add (s x) y) (s (add x y)))))
(assert (forall ((y nat)) (leq zero y)))
(assert (forall ((x nat)) (not (leq (s x) zero))))
(assert (forall ((x nat) (y nat)) (= (leq (s x) (s y)) (leq x y))))
(assert (not (forall ((v0 nat) (v1 nat) (v2 nat) (v3 nat) (v4 nat) (v5 nat) (v6 nat) (v7 nat) (v8 nat)) (= (s (s (s (add (add (add (s v8) v0) (s (s (add (add (s v1) (s (s v4))) v3)))) (s (add (s v2) (add v7 (add v6 (s v5))))))))) (add v8 (add (add (add (s v1) (add v7 (s (s (s (add (s v6) (s v0))))))) (add v4 (s v3))) (s (add v5 (s (s (s (s v2))))))))))))
(check-sat)
